proyfinal/src/viki/013/experimentInOfficeAgust.take6.output/54f247d5-e0cd-4a05-bd1a-f2a2461bc187.als.dat
{'cnf.clauses': '118081',
 'cnf.totvars': '69608',
 'conflict literals': '11',
 'conflicts': '8',
 'decisions': '7375',
 'memused.mb': '16.34',
 'outcome': 'UNSAT',
 'propagations': '36413',
 'restarts': '1',
 'solver.msecs': 32,
 'task.msecs': 82}
