proyfinal/src/viki/013/experimentInOfficeAgust.take6.output/54f247d5-e0cd-4a05-bd1a-f2a2461bc187.als.out
Reading from standard input... Use '--help' for help.
============================[ Problem Statistics ]=============================
|                                                                             |
|  Number of variables:         69608                                         |
|  Number of clauses:          118081                                         |
|  Parse time:                   0.02 s                                       |
|                                                                             |
============================[ Search Statistics ]==============================
| Conflicts |          ORIGINAL         |          LEARNT          | Progress |
|           |    Vars  Clauses Literals |    Limit  Clauses Lit/Cl |          |
===============================================================================
===============================================================================
restarts              : 1
conflicts             : 8              (248 /sec)
decisions             : 7375           (0.00 % random) (228938 /sec)
propagations          : 36413          (1130347 /sec)
conflict literals     : 11             (0.00 % deleted)
Memory used           : 16.34 MB
CPU time              : 0.032214 s

UNSATISFIABLE
